<?xml version = "1.0" standalone="yes"?>
<!-- This file has been generated by DOcplex version 2.23.222  -->
<CPLEXSolution version="1.0">
 <header
   problemName="CVRP"
   objectiveValue="19699.9"
  />
 <variables>
  <variable name="x_0_1" index="0" value="1.00000"/>
  <variable name="x_0_2" index="1" value="1.00000"/>
  <variable name="x_0_4" index="3" value="1.00000"/>
  <variable name="x_0_5" index="4" value="1.00000"/>
  <variable name="x_0_7" index="6" value="1.00000"/>
  <variable name="x_0_10" index="9" value="1.00000"/>
  <variable name="x_0_11" index="10" value="1.00000"/>
  <variable name="x_0_12" index="11" value="1.00000"/>
  <variable name="x_0_13" index="12" value="1.00000"/>
  <variable name="x_0_14" index="13" value="1.00000"/>
  <variable name="x_0_16" index="15" value="1.00000"/>
  <variable name="x_0_19" index="18" value="1.00000"/>
  <variable name="x_0_21" index="20" value="1.00000"/>
  <variable name="x_0_23" index="22" value="1.00000"/>
  <variable name="x_0_25" index="24" value="1.00000"/>
  <variable name="x_0_26" index="25" value="1.00000"/>
  <variable name="x_1_22" index="48" value="1.00000"/>
  <variable name="x_2_18" index="71" value="1.00000"/>
  <variable name="x_3_0" index="81" value="1.00000"/>
  <variable name="x_4_0" index="108" value="1.00000"/>
  <variable name="x_5_15" index="149" value="1.00000"/>
  <variable name="x_6_0" index="162" value="1.00000"/>
  <variable name="x_7_24" index="212" value="1.00000"/>
  <variable name="x_8_0" index="216" value="1.00000"/>
  <variable name="x_9_0" index="243" value="1.00000"/>
  <variable name="x_10_0" index="270" value="1.00000"/>
  <variable name="x_11_3" index="300" value="1.00000"/>
  <variable name="x_12_0" index="324" value="1.00000"/>
  <variable name="x_13_0" index="351" value="1.00000"/>
  <variable name="x_14_20" index="397" value="1.00000"/>
  <variable name="x_15_17" index="421" value="1.00000"/>
  <variable name="x_16_0" index="432" value="1.00000"/>
  <variable name="x_17_0" index="459" value="1.00000"/>
  <variable name="x_18_0" index="486" value="1.00000"/>
  <variable name="x_19_0" index="513" value="1.00000"/>
  <variable name="x_20_0" index="540" value="1.00000"/>
  <variable name="x_21_8" index="575" value="1.00000"/>
  <variable name="x_22_0" index="594" value="1.00000"/>
  <variable name="x_23_27" index="647" value="1.00000"/>
  <variable name="x_24_6" index="654" value="1.00000"/>
  <variable name="x_25_0" index="675" value="1.00000"/>
  <variable name="x_26_9" index="711" value="1.00000"/>
  <variable name="x_27_0" index="729" value="1.00000"/>
  <variable name="u_1" index="756" value="10.00000"/>
  <variable name="u_2" index="757" value="28.00000"/>
  <variable name="u_3" index="758" value="39.00000"/>
  <variable name="u_4" index="759" value="35.00000"/>
  <variable name="u_5" index="760" value="7.00000"/>
  <variable name="u_6" index="761" value="39.00000"/>
  <variable name="u_7" index="762" value="12.00000"/>
  <variable name="u_8" index="763" value="39.00000"/>
  <variable name="u_9" index="764" value="39.00000"/>
  <variable name="u_10" index="765" value="34.00000"/>
  <variable name="u_11" index="766" value="20.00000"/>
  <variable name="u_12" index="767" value="31.00000"/>
  <variable name="u_13" index="768" value="38.00000"/>
  <variable name="u_14" index="769" value="21.00000"/>
  <variable name="u_15" index="770" value="36.00000"/>
  <variable name="u_16" index="771" value="38.00000"/>
  <variable name="u_17" index="772" value="38.00000"/>
  <variable name="u_18" index="773" value="39.00000"/>
  <variable name="u_19" index="774" value="37.00000"/>
  <variable name="u_20" index="775" value="38.00000"/>
  <variable name="u_21" index="776" value="7.00000"/>
  <variable name="u_22" index="777" value="33.00000"/>
  <variable name="u_23" index="778" value="14.00000"/>
  <variable name="u_24" index="779" value="28.00000"/>
  <variable name="u_25" index="780" value="39.00000"/>
  <variable name="u_26" index="781" value="12.00000"/>
  <variable name="u_27" index="782" value="39.00000"/>
 </variables>
</CPLEXSolution>
